60

 0   0   0   0  10  10  20  20  20  30  30  40  50  50  60  10  10  14  22  22  32  32  41  51  51  61  61  36  45  45  45  54  63  32  32  36  50  58  58  67  67  67  40  40  41  57  57  50  51  54  64  71  71  71  61  63  63  67  67  72  
 0   0   0   0  10  10  20  20  20  30  30  40  50  50  60  10  10  14  22  22  32  32  41  51  51  61  61  36  45  45  45  54  63  32  32  36  50  58  58  67  67  67  40  40  41  57  57  50  51  54  64  71  71  71  61  63  63  67  67  72  
 0   0   0   0  10  10  20  20  20  30  30  40  50  50  60  10  10  14  22  22  32  32  41  51  51  61  61  36  45  45  45  54  63  32  32  36  50  58  58  67  67  67  40  40  41  57  57  50  51  54  64  71  71  71  61  63  63  67  67  72  
 0   0   0   0  10  10  20  20  20  30  30  40  50  50  60  10  10  14  22  22  32  32  41  51  51  61  61  36  45  45  45  54  63  32  32  36  50  58  58  67  67  67  40  40  41  57  57  50  51  54  64  71  71  71  61  63  63  67  67  72  
10  10  10  10   0   0  10  10  10  20  20  30  40  40  50  14  14  10  14  14  22  22  32  41  41  51  51  28  36  36  36  45  54  30  30  32  42  50  50  58  58  58  41  41  40  50  50  51  50  51  58  64  64  64  60  61  61  63  63  67  
10  10  10  10   0   0  10  10  10  20  20  30  40  40  50  14  14  10  14  14  22  22  32  41  41  51  51  28  36  36  36  45  54  30  30  32  42  50  50  58  58  58  41  41  40  50  50  51  50  51  58  64  64  64  60  61  61  63  63  67  
20  20  20  20  10  10   0   0   0  10  10  20  30  30  40  22  22  14  10  10  14  14  22  32  32  41  41  22  28  28  28  36  45  32  32  30  36  42  42  50  50  50  45  45  41  45  45  54  51  50  54  58  58  58  61  60  60  61  61  63  
20  20  20  20  10  10   0   0   0  10  10  20  30  30  40  22  22  14  10  10  14  14  22  32  32  41  41  22  28  28  28  36  45  32  32  30  36  42  42  50  50  50  45  45  41  45  45  54  51  50  54  58  58  58  61  60  60  61  61  63  
20  20  20  20  10  10   0   0   0  10  10  20  30  30  40  22  22  14  10  10  14  14  22  32  32  41  41  22  28  28  28  36  45  32  32  30  36  42  42  50  50  50  45  45  41  45  45  54  51  50  54  58  58  58  61  60  60  61  61  63  
30  30  30  30  20  20  10  10  10   0   0  10  20  20  30  32  32  22  14  14  10  10  14  22  22  32  32  20  22  22  22  28  36  36  36  32  32  36  36  42  42  42  50  50  45  41  41  58  54  51  51  54  54  54  63  61  61  60  60  61  
30  30  30  30  20  20  10  10  10   0   0  10  20  20  30  32  32  22  14  14  10  10  14  22  22  32  32  20  22  22  22  28  36  36  36  32  32  36  36  42  42  42  50  50  45  41  41  58  54  51  51  54  54  54  63  61  61  60  60  61  
40  40  40  40  30  30  20  20  20  10  10   0  10  10  20  41  41  32  22  22  14  14  10  14  14  22  22  22  20  20  20  22  28  42  42  36  30  32  32  36  36  36  57  57  50  40  40  64  58  54  50  51  51  51  67  63  63  61  61  60  
50  50  50  50  40  40  30  30  30  20  20  10   0   0  10  51  51  41  32  32  22  22  14  10  10  14  14  28  22  22  22  20  22  50  50  42  32  30  30  32  32  32  64  64  57  41  41  71  64  58  51  50  50  50  72  67  67  63  63  61  
50  50  50  50  40  40  30  30  30  20  20  10   0   0  10  51  51  41  32  32  22  22  14  10  10  14  14  28  22  22  22  20  22  50  50  42  32  30  30  32  32  32  64  64  57  41  41  71  64  58  51  50  50  50  72  67  67  63  63  61  
60  60  60  60  50  50  40  40  40  30  30  20  10  10   0  61  61  51  41  41  32  32  22  14  14  10  10  36  28  28  28  22  20  58  58  50  36  32  32  30  30  30  72  72  64  45  45  78  71  64  54  51  51  51  78  72  72  67  67  63  
10  10  10  10  14  14  22  22  22  32  32  41  51  51  61   0   0  10  20  20  30  30  40  50  50  60  60  32  41  41  41  51  61  22  22  28  45  54  54  63  63  63  30  30  32  50  50  40  41  45  57  64  64  64  51  54  54  58  58  64  
10  10  10  10  14  14  22  22  22  32  32  41  51  51  61   0   0  10  20  20  30  30  40  50  50  60  60  32  41  41  41  51  61  22  22  28  45  54  54  63  63  63  30  30  32  50  50  40  41  45  57  64  64  64  51  54  54  58  58  64  
14  14  14  14  10  10  14  14  14  22  22  32  41  41  51  10  10   0  10  10  20  20  30  40  40  50  50  22  32  32  32  41  51  20  20  22  36  45  45  54  54  54  32  32  30  42  42  41  40  41  50  57  57  57  50  51  51  54  54  58  
22  22  22  22  14  14  10  10  10  14  14  22  32  32  41  20  20  10   0   0  10  10  20  30  30  40  40  14  22  22  22  32  41  22  22  20  28  36  36  45  45  45  36  36  32  36  36  45  41  40  45  50  50  50  51  50  50  51  51  54  
22  22  22  22  14  14  10  10  10  14  14  22  32  32  41  20  20  10   0   0  10  10  20  30  30  40  40  14  22  22  22  32  41  22  22  20  28  36  36  45  45  45  36  36  32  36  36  45  41  40  45  50  50  50  51  50  50  51  51  54  
32  32  32  32  22  22  14  14  14  10  10  14  22  22  32  30  30  20  10  10   0   0  10  20  20  30  30  10  14  14  14  22  32  28  28  22  22  28  28  36  36  36  42  42  36  32  32  50  45  41  41  45  45  45  54  51  51  50  50  51  
32  32  32  32  22  22  14  14  14  10  10  14  22  22  32  30  30  20  10  10   0   0  10  20  20  30  30  10  14  14  14  22  32  28  28  22  22  28  28  36  36  36  42  42  36  32  32  50  45  41  41  45  45  45  54  51  51  50  50  51  
41  41  41  41  32  32  22  22  22  14  14  10  14  14  22  40  40  30  20  20  10  10   0  10  10  20  20  14  10  10  10  14  22  36  36  28  20  22  22  28  28  28  50  50  42  30  30  57  50  45  40  41  41  41  58  54  54  51  51  50  
51  51  51  51  41  41  32  32  32  22  22  14  10  10  14  50  50  40  30  30  20  20  10   0   0  10  10  22  14  14  14  10  14  45  45  36  22  20  20  22  22  22  58  58  50  32  32  64  57  50  41  40  40  40  64  58  58  54  54  51  
51  51  51  51  41  41  32  32  32  22  22  14  10  10  14  50  50  40  30  30  20  20  10   0   0  10  10  22  14  14  14  10  14  45  45  36  22  20  20  22  22  22  58  58  50  32  32  64  57  50  41  40  40  40  64  58  58  54  54  51  
61  61  61  61  51  51  41  41  41  32  32  22  14  14  10  60  60  50  40  40  30  30  20  10  10   0   0  32  22  22  22  14  10  54  54  45  28  22  22  20  20  20  67  67  58  36  36  72  64  57  45  41  41  41  71  64  64  58  58  54  
61  61  61  61  51  51  41  41  41  32  32  22  14  14  10  60  60  50  40  40  30  30  20  10  10   0   0  32  22  22  22  14  10  54  54  45  28  22  22  20  20  20  67  67  58  36  36  72  64  57  45  41  41  41  71  64  64  58  58  54  
36  36  36  36  28  28  22  22  22  20  20  22  28  28  36  32  32  22  14  14  10  10  14  22  22  32  32   0  10  10  10  20  30  22  22  14  14  22  22  32  32  32  36  36  28  22  22  42  36  32  32  36  36  36  45  41  41  40  40  41  
45  45  45  45  36  36  28  28  28  22  22  20  22  22  28  41  41  32  22  22  14  14  10  14  14  22  22  10   0   0   0  10  20  32  32  22  10  14  14  22  22  22  45  45  36  20  20  50  42  36  30  32  32  32  50  45  45  41  41  40  
45  45  45  45  36  36  28  28  28  22  22  20  22  22  28  41  41  32  22  22  14  14  10  14  14  22  22  10   0   0   0  10  20  32  32  22  10  14  14  22  22  22  45  45  36  20  20  50  42  36  30  32  32  32  50  45  45  41  41  40  
45  45  45  45  36  36  28  28  28  22  22  20  22  22  28  41  41  32  22  22  14  14  10  14  14  22  22  10   0   0   0  10  20  32  32  22  10  14  14  22  22  22  45  45  36  20  20  50  42  36  30  32  32  32  50  45  45  41  41  40  
54  54  54  54  45  45  36  36  36  28  28  22  20  20  22  51  51  41  32  32  22  22  14  10  10  14  14  20  10  10  10   0  10  41  41  32  14  10  10  14  14  14  54  54  45  22  22  58  50  42  32  30  30  30  57  50  50  45  45  41  
63  63  63  63  54  54  45  45  45  36  36  28  22  22  20  61  61  51  41  41  32  32  22  14  14  10  10  30  20  20  20  10   0  51  51  41  22  14  14  10  10  10  63  63  54  28  28  67  58  50  36  32  32  32  64  57  57  50  50  45  
32  32  32  32  30  30  32  32  32  36  36  42  50  50  58  22  22  20  22  22  28  28  36  45  45  54  54  22  32  32  32  41  51   0   0  10  30  40  40  50  50  50  14  14  10  32  32  22  20  22  36  45  45  45  30  32  32  36  36  42  
32  32  32  32  30  30  32  32  32  36  36  42  50  50  58  22  22  20  22  22  28  28  36  45  45  54  54  22  32  32  32  41  51   0   0  10  30  40  40  50  50  50  14  14  10  32  32  22  20  22  36  45  45  45  30  32  32  36  36  42  
36  36  36  36  32  32  30  30  30  32  32  36  42  42  50  28  28  22  20  20  22  22  28  36  36  45  45  14  22  22  22  32  41  10  10   0  20  30  30  40  40  40  22  22  14  22  22  28  22  20  28  36  36  36  32  30  30  32  32  36  
50  50  50  50  42  42  36  36  36  32  32  30  32  32  36  45  45  36  28  28  22  22  20  22  22  28  28  14  10  10  10  14  22  30  30  20   0  10  10  20  20  20  41  41  32  10  10  45  36  28  20  22  22  22  42  36  36  32  32  30  
58  58  58  58  50  50  42  42  42  36  36  32  30  30  32  54  54  45  36  36  28  28  22  20  20  22  22  22  14  14  14  10  14  40  40  30  10   0   0  10  10  10  51  51  41  14  14  54  45  36  22  20  20  20  50  42  42  36  36  32  
58  58  58  58  50  50  42  42  42  36  36  32  30  30  32  54  54  45  36  36  28  28  22  20  20  22  22  22  14  14  14  10  14  40  40  30  10   0   0  10  10  10  51  51  41  14  14  54  45  36  22  20  20  20  50  42  42  36  36  32  
67  67  67  67  58  58  50  50  50  42  42  36  32  32  30  63  63  54  45  45  36  36  28  22  22  20  20  32  22  22  22  14  10  50  50  40  20  10  10   0   0   0  61  61  51  22  22  63  54  45  28  22  22  22  58  50  50  42  42  36  
67  67  67  67  58  58  50  50  50  42  42  36  32  32  30  63  63  54  45  45  36  36  28  22  22  20  20  32  22  22  22  14  10  50  50  40  20  10  10   0   0   0  61  61  51  22  22  63  54  45  28  22  22  22  58  50  50  42  42  36  
67  67  67  67  58  58  50  50  50  42  42  36  32  32  30  63  63  54  45  45  36  36  28  22  22  20  20  32  22  22  22  14  10  50  50  40  20  10  10   0   0   0  61  61  51  22  22  63  54  45  28  22  22  22  58  50  50  42  42  36  
40  40  40  40  41  41  45  45  45  50  50  57  64  64  72  30  30  32  36  36  42  42  50  58  58  67  67  36  45  45  45  54  63  14  14  22  41  51  51  61  61  61   0   0  10  40  40  10  14  22  41  51  51  51  22  28  28  36  36  45  
40  40  40  40  41  41  45  45  45  50  50  57  64  64  72  30  30  32  36  36  42  42  50  58  58  67  67  36  45  45  45  54  63  14  14  22  41  51  51  61  61  61   0   0  10  40  40  10  14  22  41  51  51  51  22  28  28  36  36  45  
41  41  41  41  40  40  41  41  41  45  45  50  57  57  64  32  32  30  32  32  36  36  42  50  50  58  58  28  36  36  36  45  54  10  10  14  32  41  41  51  51  51  10  10   0  30  30  14  10  14  32  41  41  41  20  22  22  28  28  36  
57  57  57  57  50  50  45  45  45  41  41  40  41  41  45  50  50  42  36  36  32  32  30  32  32  36  36  22  20  20  20  22  28  32  32  22  10  14  14  22  22  22  40  40  30   0   0  41  32  22  10  14  14  14  36  28  28  22  22  20  
57  57  57  57  50  50  45  45  45  41  41  40  41  41  45  50  50  42  36  36  32  32  30  32  32  36  36  22  20  20  20  22  28  32  32  22  10  14  14  22  22  22  40  40  30   0   0  41  32  22  10  14  14  14  36  28  28  22  22  20  
50  50  50  50  51  51  54  54  54  58  58  64  71  71  78  40  40  41  45  45  50  50  57  64  64  72  72  42  50  50  50  58  67  22  22  28  45  54  54  63  63  63  10  10  14  41  41   0  10  20  40  50  50  50  14  22  22  32  32  41  
51  51  51  51  50  50  51  51  51  54  54  58  64  64  71  41  41  40  41  41  45  45  50  57  57  64  64  36  42  42  42  50  58  20  20  22  36  45  45  54  54  54  14  14  10  32  32  10   0  10  30  40  40  40  10  14  14  22  22  32  
54  54  54  54  51  51  50  50  50  51  51  54  58  58  64  45  45  41  40  40  41  41  45  50  50  57  57  32  36  36  36  42  50  22  22  20  28  36  36  45  45  45  22  22  14  22  22  20  10   0  20  30  30  30  14  10  10  14  14  22  
64  64  64  64  58  58  54  54  54  51  51  50  51  51  54  57  57  50  45  45  41  41  40  41  41  45  45  32  30  30  30  32  36  36  36  28  20  22  22  28  28  28  41  41  32  10  10  40  30  20   0  10  10  10  32  22  22  14  14  10  
71  71  71  71  64  64  58  58  58  54  54  51  50  50  51  64  64  57  50  50  45  45  41  40  40  41  41  36  32  32  32  30  32  45  45  36  22  20  20  22  22  22  51  51  41  14  14  50  40  30  10   0   0   0  41  32  32  22  22  14  
71  71  71  71  64  64  58  58  58  54  54  51  50  50  51  64  64  57  50  50  45  45  41  40  40  41  41  36  32  32  32  30  32  45  45  36  22  20  20  22  22  22  51  51  41  14  14  50  40  30  10   0   0   0  41  32  32  22  22  14  
71  71  71  71  64  64  58  58  58  54  54  51  50  50  51  64  64  57  50  50  45  45  41  40  40  41  41  36  32  32  32  30  32  45  45  36  22  20  20  22  22  22  51  51  41  14  14  50  40  30  10   0   0   0  41  32  32  22  22  14  
61  61  61  61  60  60  61  61  61  63  63  67  72  72  78  51  51  50  51  51  54  54  58  64  64  71  71  45  50  50  50  57  64  30  30  32  42  50  50  58  58  58  22  22  20  36  36  14  10  14  32  41  41  41   0  10  10  20  20  30  
63  63  63  63  61  61  60  60  60  61  61  63  67  67  72  54  54  51  50  50  51  51  54  58  58  64  64  41  45  45  45  50  57  32  32  30  36  42  42  50  50  50  28  28  22  28  28  22  14  10  22  32  32  32  10   0   0  10  10  20  
63  63  63  63  61  61  60  60  60  61  61  63  67  67  72  54  54  51  50  50  51  51  54  58  58  64  64  41  45  45  45  50  57  32  32  30  36  42  42  50  50  50  28  28  22  28  28  22  14  10  22  32  32  32  10   0   0  10  10  20  
67  67  67  67  63  63  61  61  61  60  60  61  63  63  67  58  58  54  51  51  50  50  51  54  54  58  58  40  41  41  41  45  50  36  36  32  32  36  36  42  42  42  36  36  28  22  22  32  22  14  14  22  22  22  20  10  10   0   0  10  
67  67  67  67  63  63  61  61  61  60  60  61  63  63  67  58  58  54  51  51  50  50  51  54  54  58  58  40  41  41  41  45  50  36  36  32  32  36  36  42  42  42  36  36  28  22  22  32  22  14  14  22  22  22  20  10  10   0   0  10  
72  72  72  72  67  67  63  63  63  61  61  60  61  61  63  64  64  58  54  54  51  51  50  51  51  54  54  41  40  40  40  41  45  42  42  36  30  32  32  36  36  36  45  45  36  20  20  41  32  22  10  14  14  14  30  20  20  10  10   0  

 0  35  27  30  14  15  32  20  26  20  36  32  20  26  30  11  28  36  39  16  25  20  25  25  20  25  20  25  34  16  32  11  13  30  30  31  25  30  21  20  25  25  30  25  25  16  25  35  25  32  20  39  32  25  14  25  16  16  34  20  
 0   0  29  36  30  29  26  23  30  30  30  26  20  25  25  32  20  20  24  35  25  10  19  25  30  27  20  15  35  31  25  30  20  25  30  27  30  32  13  30  40  15  27   4  25  23  13  40  25  29  28  20  25  33  21  31  25  25  31  13  
 0   0   0  33  25  14  23  28  25  25  25  41  25  27  27  15  34  25  19  15  27  29  19  19  31  28  25  41  15  32  27  18  29  31  15  25  13  20  33  25  15  32  25  31  25  27  33  15  25  15  41  25  33  31  25  31  33  19  29  35  
 0   0   0   0  25  33  20  25  25  25  20  12  30  25  23  30  30  25  26  25  23  30  31  25  25  25  30  25  25  21  25  30  28  25  25  25  32  22  22  25  20  25  25  29  25  23  27  20  25  27  19  25  25  19  25  19  23  25  21  25  
 0   0   0   0   0  23  25  25  26  20  31  27  25  19  25  25  19  36  25  25  25  25  25  25  20  25  27  25  23  23  25  25  25  25  32  31  25  25  30  20  27  25  25  30  25  25  25  25  25  23  20  30  25  25  19  25  25  25  25  25  
 0   0   0   0   0   0  25  28  15  35  15  35  25  25  27  25  28  25  19  25  27  25  19  35  25  28  37  35  23  30  25  28  27  25  17  15  33  20  13  15  27  22  25  21  35  27  33  25  25  21  31  25  25  31  25  21  27  25  29  25  
 0   0   0   0   0   0   0  19  19  25  16  18  26  27  25  32  24  21  20  25  25  30  23  29  25  21  30  25  25  25  33  36  36  25  25  27  34  26  20  21  14  25  27  25  25  23  29  20  25  33  29  25  25  33  21  31  17  31  31  23  
 0   0   0   0   0   0   0   0  25  25  20  30  21  30  30  25  27  25  20  30  21  30  25  24  30  20  30  20  25  27  25  17  24  30  20  27  34  33  20  21  25  23  35  20  25  23  34  30  20  27  22  23  24  27  23  30  25  25  30  25  
 0   0   0   0   0   0   0   0   0  30   3  25  25  31  25  25  25  18  25  25  31  25  25  35  20  25  35  35  25  25  31  31  25  25  20   9  35  31  20  10  19  25  25  30  35  25  35  25  25  31  20  30  19  31  31  21  19  31  31  25  
 0   0   0   0   0   0   0   0   0   0  35  30  25  32  25  18  25  30  32  25  25  25  25  15   8  25  15  15  20  25  25  30  25  30  33  23  27  30  40  25  20  32  25  30  10  23  22  25  25  25  15  25  25  25  25  40  30  30  25  30  
 0   0   0   0   0   0   0   0   0   0   0  25  40  31  25  30  37  11  20  32  33  30  27  42  30  27  40  42  25  25  31  31  23  25   0   9  33  33   8   8  14  13  32  25  35  25  38  17  20  24  23  32  29  31  38  33  14  31  36  23  
 0   0   0   0   0   0   0   0   0   0   0   0  30  27  23  40  30  25  26  35  23  20  31  25  25  25  28  15  37  23  27  45  30  25  38  25  42  12  12  30  28  20  20  19  25  18  12  30  35  27  14  30  27  19  25  14  18  25  16  10  
 0   0   0   0   0   0   0   0   0   0   0   0   0  29  25  16  20  25  30  29  21  20  25  33  25  21  20  25  21  25  25  20  24  25  39  25  18  24  30  21  26  21  25  25  25  25  29  40  25  31  21  25  19  31  29  25  29  25  29  25  
 0   0   0   0   0   0   0   0   0   0   0   0   0   0  25  45  10  31  14  25  25  20  25  31  32  30  20  30  20  29  14  39  23  25  28  38  18  25  34  25  24  22  20  25  25  36  18  25  20  32  34  16  14  25  10  25  30  34  12  25  
 0   0   0   0   0   0   0   0   0   0   0   0   0   0   0  25  20  25  25  25  23  25  25  25  25  25  25  25  25  27  25  25  28  20  25  25  22  27  32  25  30  25  20  28  25  23  27  20  25  22  25  25  25  25  30  25  23  25  27  30  
 0   0   0   0   0   0   0   0   0   0   0   0   0   0   0   0  29  25  46  10  20  30  25  29  18  25  20  35  20  16  34   1  20  30  12  18  17  28  33  25  16  38  23  35  25   9  44  20  25  23  31  32  34  25  31  25  20  16  38  37  
 0   0   0   0   0   0   0   0   0   0   0   0   0   0   0   0   0  25  21  27  31  26  25  24  19  22  20  12  16  31  22  32  32  14  25  31  22  39  44  32  29  35  13  30  25  34  25  18  25  39  25   9   4  31  17  24  29  46  22  37  
 0   0   0   0   0   0   0   0   0   0   0   0   0   0   0   0   0   0  25  25  33  25  27  25  30  27  25  25  25  25  31  31  25  25  20  19  25  33  18  30  19  25  25  20  25  25  23  25  25  31  28  20  19  31  31  31  21  31  31  25  
 0   0   0   0   0   0   0   0   0   0   0   0   0   0   0   0   0   0   0  39  25  35  19  20  32  25  35  20  16  45  16  39  30  25  32  32  23  20  29  25  25  18  30  19  25  41  18  20  25  20  26  16  11  31  30  31  34  34  22  25  
 0   0   0   0   0   0   0   0   0   0   0   0   0   0   0   0   0   0   0   0  25  30  25  19  25  25  20  33  28  11  34   6  32  25  11  25  22  25  26  32  14  46  13  35  25  16  35   8  25  37  44  27  39  25   9  18  19  16  30  42  
 0   0   0   0   0   0   0   0   0   0   0   0   0   0   0   0   0   0   0   0   0  25  23  29  25  19  25  25  25  27  19  19  27  30  25  25  31  19  29  21  31  25  25  23  25  23  33  25  25  21  27  25  35  19  25  19  27  19  21  25  
 0   0   0   0   0   0   0   0   0   0   0   0   0   0   0   0   0   0   0   0   0   0  25  24  31  25  15  26  35  20  25  30  20  31  35  25  30  30  20  25  35  15  20  15  25  25  15  40  25  24  20  25  36  25  20  25  31  19  25  15  
 0   0   0   0   0   0   0   0   0   0   0   0   0   0   0   0   0   0   0   0   0   0   0  25  25  23  25  25  25  31  25  25  25  25  25  25  25  23  27  25  25  25  25  19  25  25  27  25  25  25  33  25  25  31  25  31  23  25  31  25  
 0   0   0   0   0   0   0   0   0   0   0   0   0   0   0   0   0   0   0   0   0   0   0   0  31  24  20   9  29  30  25  20  28  31  31  35  18  25  35  46  34  36  23  25  15  30  11  18  30  21  24  18  27  25  19  28  34  19  21  32  
 0   0   0   0   0   0   0   0   0   0   0   0   0   0   0   0   0   0   0   0   0   0   0   0   0  25  25  19  25  25  25  30  25  19  28  18  32  25  30  15  25  37  30  30  25  23  27  25  25  31  15  25  19  25  25  20  24  31  20  20  
 0   0   0   0   0   0   0   0   0   0   0   0   0   0   0   0   0   0   0   0   0   0   0   0   0   0  25  25  25  22  25  17  29  25  25  23  29  26  27  21  25  28  25  25  25  32  31  25  30  23  25  27  34  23  27  25  23  25  25  25  
 0   0   0   0   0   0   0   0   0   0   0   0   0   0   0   0   0   0   0   0   0   0   0   0   0   0   0  20  27  22  25  20  20  25  33  35  10  30  40  35  23  25  20  25  15  25  15  30  25  32  30  25  30  25  20  35  25  25  25  25  
 0   0   0   0   0   0   0   0   0   0   0   0   0   0   0   0   0   0   0   0   0   0   0   0   0   0   0   0  35  30  25  35  32  19  45  35  32  25  25  42  40  22  23  15  15  25   5  28  25  33  10  18  14  25  23  28  26  31  25  22  
 0   0   0   0   0   0   0   0   0   0   0   0   0   0   0   0   0   0   0   0   0   0   0   0   0   0   0   0   0  32  16  29  25  30  21  20  20  25  44  25   8  31  20  35  20  34  35  15  30  23  31  16  16  25  29  30  38  39  20  40  
 0   0   0   0   0   0   0   0   0   0   0   0   0   0   0   0   0   0   0   0   0   0   0   0   0   0   0   0   0   0  34  13  27  25  27  25  23  26  14  25  22  28  20  33  25  18  23  25  25  26  24  34  39  19  20  19  18  16  26  25  
 0   0   0   0   0   0   0   0   0   0   0   0   0   0   0   0   0   0   0   0   0   0   0   0   0   0   0   0   0   0   0  28  23  25  25  25  25  19  34  25  31  25  25  25  25  34  25  25  25  21  25  16  20  19  25  19  40  28  10  25  
 0   0   0   0   0   0   0   0   0   0   0   0   0   0   0   0   0   0   0   0   0   0   0   0   0   0   0   0   0   0   0   0  20  20  10  30   5  32  31  25  31  33  30  35  30  21  40  20  20  19  35  34  45  19  25  19  22   5  33  35  
 0   0   0   0   0   0   0   0   0   0   0   0   0   0   0   0   0   0   0   0   0   0   0   0   0   0   0   0   0   0   0   0   0  30  25  25  16  32  27  22  25  18  37  18  25  23  23  42  25  27  25  32  19  25  27  32  16  25  27  13  
 0   0   0   0   0   0   0   0   0   0   0   0   0   0   0   0   0   0   0   0   0   0   0   0   0   0   0   0   0   0   0   0   0   0  25  30  15  25  30  25  35  25  25  30  30  25  25  20  20  26  25  25  19  25  30  20  19  26  25  25  
 0   0   0   0   0   0   0   0   0   0   0   0   0   0   0   0   0   0   0   0   0   0   0   0   0   0   0   0   0   0   0   0   0   0   0   8  32  30  20  20  17  41  25  30  35  18  57   5  20  27  44  20  35  25  21  20  21  25  26  40  
 0   0   0   0   0   0   0   0   0   0   0   0   0   0   0   0   0   0   0   0   0   0   0   0   0   0   0   0   0   0   0   0   0   0   0   0  47  25  15  15  20  32  20  25  30  20  42  25  30  23  23  27  25  23  33  20  25  30  25  30  
 0   0   0   0   0   0   0   0   0   0   0   0   0   0   0   0   0   0   0   0   0   0   0   0   0   0   0   0   0   0   0   0   0   0   0   0   0  22  53  32  30  21  32  42  20  34  12  22  20  17  35  32  21  31  37  37  20  20  23  28  
 0   0   0   0   0   0   0   0   0   0   0   0   0   0   0   0   0   0   0   0   0   0   0   0   0   0   0   0   0   0   0   0   0   0   0   0   0   0  22  30  26  27  18  27  25  22  22  20  35  21  32  28  31  25  27  14  26  19  12  22  
 0   0   0   0   0   0   0   0   0   0   0   0   0   0   0   0   0   0   0   0   0   0   0   0   0   0   0   0   0   0   0   0   0   0   0   0   0   0   0  20  25  15  32   7  35  18  19  35  25  30  18  31  34  25  18  15  20  16  32   8  
 0   0   0   0   0   0   0   0   0   0   0   0   0   0   0   0   0   0   0   0   0   0   0   0   0   0   0   0   0   0   0   0   0   0   0   0   0   0   0   0  25  18  37  30  35  30  39  32  20  18  15  32  29  25  32  22  23  25  25  18  
 0   0   0   0   0   0   0   0   0   0   0   0   0   0   0   0   0   0   0   0   0   0   0   0   0   0   0   0   0   0   0   0   0   0   0   0   0   0   0   0   0  31  20  30  20  25  35  15  30  43  36  25  24  31  19  36  23  36  35  35  
 0   0   0   0   0   0   0   0   0   0   0   0   0   0   0   0   0   0   0   0   0   0   0   0   0   0   0   0   0   0   0   0   0   0   0   0   0   0   0   0   0   0  32  15  25  32  13  42  20  18  11  32  25  25  36  37  22  25  34  13  
 0   0   0   0   0   0   0   0   0   0   0   0   0   0   0   0   0   0   0   0   0   0   0   0   0   0   0   0   0   0   0   0   0   0   0   0   0   0   0   0   0   0   0  30  20  20  27  13  35  30  35  21  30  25  20  23  27  30  25  44  
 0   0   0   0   0   0   0   0   0   0   0   0   0   0   0   0   0   0   0   0   0   0   0   0   0   0   0   0   0   0   0   0   0   0   0   0   0   0   0   0   0   0   0   0  25  23  17  40  25  32  26  20  25  31  20  31  23  25  33  10  
 0   0   0   0   0   0   0   0   0   0   0   0   0   0   0   0   0   0   0   0   0   0   0   0   0   0   0   0   0   0   0   0   0   0   0   0   0   0   0   0   0   0   0   0   0  25  15  25  30  25  25  25  25  25  25  40  25  30  25  30  
 0   0   0   0   0   0   0   0   0   0   0   0   0   0   0   0   0   0   0   0   0   0   0   0   0   0   0   0   0   0   0   0   0   0   0   0   0   0   0   0   0   0   0   0   0   0  34  25  25  29  32  37  29  27  23  25   9  16  36  25  
 0   0   0   0   0   0   0   0   0   0   0   0   0   0   0   0   0   0   0   0   0   0   0   0   0   0   0   0   0   0   0   0   0   0   0   0   0   0   0   0   0   0   0   0   0   0   0  35  30  25  13  27  21  25  23  30  29  25  18   8  
 0   0   0   0   0   0   0   0   0   0   0   0   0   0   0   0   0   0   0   0   0   0   0   0   0   0   0   0   0   0   0   0   0   0   0   0   0   0   0   0   0   0   0   0   0   0   0   0  25  27  35  18  35  25  23  18  32  25  25  47  
 0   0   0   0   0   0   0   0   0   0   0   0   0   0   0   0   0   0   0   0   0   0   0   0   0   0   0   0   0   0   0   0   0   0   0   0   0   0   0   0   0   0   0   0   0   0   0   0   0  25  20  20  20  25  25  25  30  20  30  25  
 0   0   0   0   0   0   0   0   0   0   0   0   0   0   0   0   0   0   0   0   0   0   0   0   0   0   0   0   0   0   0   0   0   0   0   0   0   0   0   0   0   0   0   0   0   0   0   0   0   0  18  32  34  11  46  26  32  13  17  25  
 0   0   0   0   0   0   0   0   0   0   0   0   0   0   0   0   0   0   0   0   0   0   0   0   0   0   0   0   0   0   0   0   0   0   0   0   0   0   0   0   0   0   0   0   0   0   0   0   0   0   0  27  20  17  36  19  36  25  23  15  
 0   0   0   0   0   0   0   0   0   0   0   0   0   0   0   0   0   0   0   0   0   0   0   0   0   0   0   0   0   0   0   0   0   0   0   0   0   0   0   0   0   0   0   0   0   0   0   0   0   0   0   0  16  27  18  18  46  34  16  34  
 0   0   0   0   0   0   0   0   0   0   0   0   0   0   0   0   0   0   0   0   0   0   0   0   0   0   0   0   0   0   0   0   0   0   0   0   0   0   0   0   0   0   0   0   0   0   0   0   0   0   0   0   0  31  30  31  22  46  22  25  
 0   0   0   0   0   0   0   0   0   0   0   0   0   0   0   0   0   0   0   0   0   0   0   0   0   0   0   0   0   0   0   0   0   0   0   0   0   0   0   0   0   0   0   0   0   0   0   0   0   0   0   0   0   0  27  13  31  19  13  25  
 0   0   0   0   0   0   0   0   0   0   0   0   0   0   0   0   0   0   0   0   0   0   0   0   0   0   0   0   0   0   0   0   0   0   0   0   0   0   0   0   0   0   0   0   0   0   0   0   0   0   0   0   0   0   0  18  28  25  21  25  
 0   0   0   0   0   0   0   0   0   0   0   0   0   0   0   0   0   0   0   0   0   0   0   0   0   0   0   0   0   0   0   0   0   0   0   0   0   0   0   0   0   0   0   0   0   0   0   0   0   0   0   0   0   0   0   0  38  14   8  22  
 0   0   0   0   0   0   0   0   0   0   0   0   0   0   0   0   0   0   0   0   0   0   0   0   0   0   0   0   0   0   0   0   0   0   0   0   0   0   0   0   0   0   0   0   0   0   0   0   0   0   0   0   0   0   0   0   0  28  38  18  
 0   0   0   0   0   0   0   0   0   0   0   0   0   0   0   0   0   0   0   0   0   0   0   0   0   0   0   0   0   0   0   0   0   0   0   0   0   0   0   0   0   0   0   0   0   0   0   0   0   0   0   0   0   0   0   0   0   0  28  20  
 0   0   0   0   0   0   0   0   0   0   0   0   0   0   0   0   0   0   0   0   0   0   0   0   0   0   0   0   0   0   0   0   0   0   0   0   0   0   0   0   0   0   0   0   0   0   0   0   0   0   0   0   0   0   0   0   0   0   0  20  
 0   0   0   0   0   0   0   0   0   0   0   0   0   0   0   0   0   0   0   0   0   0   0   0   0   0   0   0   0   0   0   0   0   0   0   0   0   0   0   0   0   0   0   0   0   0   0   0   0   0   0   0   0   0   0   0   0   0   0   0  
